# 41477
param n := 25;
param s := 1;
set E :=  (0,4) (0,17) (1,14) (1,16) (1,17) (1,22) (2,4) (2,6) (2,14) (2,17) (3,19) (5,14) (6,8) (7,18) (8,15) (8,20) (9,22) (10,11) (10,15) (10,22) (11,16) (11,24) (12,24) (13,18) (13,19) (14,21) (17,18) (19,23);
